000 000 000 001 000 000 000 000 001 000 000 001 001 001 002 001 002 002 003 002 002 002 003 002 002 003 003 002 003 002 005
000 000 000 000 000 000 000 001 000 001 000 000 000 001 002 002 001 002 003 002 002 002 003 002 002 002 003 003 003 002 004
000 000 000 000 001 001 000 001 001 001 000 000 000 000 001 001 001 002 002 003 001 002 002 003 001 003 003 002 002 -99 002
000 000 000 000 001 001 001 000 001 000 000 000 000 001 001 001 003 002 002 002 002 002 002 002 002 002 002 002 002 002 002
001 000 000 000 001 001 001 001 000 000 000 000 000 000 001 001 002 002 002 002 001 002 001 002 003 003 002 002 002 -99 002
000 000 000 001 000 000 001 001 000 000 000 001 001 001 001 001 002 002 002 002 001 002 002 003 001 003 002 002 002 -99 001
001 001 000 000 000 000 001 001 001 001 001 000 001 001 001 002 001 001 002 001 001 001 002 002 002 002 002 002 002 003 -99
001 000 000 000 000 001 001 000 001 000 001 001 001 000 000 001 001 001 001 001 001 001 002 002 002 002 002 002 002 003 003
001 001 001 001 000 000 000 001 000 000 001 001 001 000 000 000 001 001 001 001 002 001 002 002 001 002 003 003 002 002 003
000 000 001 001 001 000 000 000 000 001 000 000 001 000 000 000 001 001 001 002 002 002 001 003 003 002 003 003 003 003 003
001 000 000 001 001 001 000 000 000 000 000 001 001 000 001 001 001 002 002 002 002 003 002 003 002 003 003 004 007 005 005
000 001 000 001 000 001 001 000 001 001 000 000 000 000 000 001 001 002 002 003 003 003 003 003 002 004 005 005 008 010 008
000 000 000 001 001 000 000 001 001 000 000 000 000 000 001 001 001 002 002 002 002 003 004 004 003 004 003 005 009 014 010
000 001 001 001 001 000 000 000 000 000 000 000 000 000 000 001 001 002 002 003 003 004 004 004 005 006 008 007 019 015 013
000 000 000 000 000 000 000 000 000 000 000 000 000 000 000 000 001 002 001 003 005 004 004 004 004 006 008 012 021 014 007
000 000 000 001 000 000 000 000 000 000 000 000 000 000 000 000 001 001 002 007 006 007 004 005 004 007 010 013 017 016 018
000 000 000 000 000 000 000 000 000 000 000 000 000 000 000 000 000 001 002 004 003 008 008 004 005 003 009 009 011 012 010
000 000 000 000 000 000 000 000 000 000 000 000 000 000 000 000 000 001 001 002 005 011 004 003 005 002 008 007 007 010 006
000 000 000 000 -99 000 000 000 000 000 000 000 000 000 000 000 000 001 001 003 004 008 004 006 004 005 007 008 006 005 008
000 000 000 000 000 -99 000 000 000 000 000 000 -99 000 000 000 001 000 004 008 005 007 005 006 004 005 007 008 006 005 008
000 000 000 000 000 -99 -99 000 000 000 000 000 -99 000 000 000 001 001 004 002 003 004 005 005 005 -99 004 004 -99 004 005
000 000 000 000 000 000 -99 000 000 000 -99 -99 -99 000 000 000 001 002 003 002 003 005 006 005 005 -99 004 004 -99 004 005
000 000 000 000 000 000 000 000 000 000 000 -99 -99 000 000 000 001 002 002 001 002 004 004 005 005 -99 -99 -99 -99 -99 012
000 000 000 000 000 000 000 000 000 000 000 -99 -99 000 000 000 000 000 001 000 002 002 001 -99 -99 -99 -99 -99 -99 -99 006
000 000 000 000 000 000 000 000 000 000 000 -99 000 000 000 000 000 000 000 000 001 001 001 -99 -99 -99 -99 -99 -99 -99 003
000 000 000 000 000 000 000 000 000 000 000 -99 000 000 000 000 000 000 000 000 000 000 001 -99 -99 -99 -99 -99 -99 001 001
000 000 000 000 000 000 000 000 000 000 000 -99 000 000 000 000 000 000 000 000 000 001 000 -99 -99 -99 -99 -99 -99 001 001
000 000 000 000 000 000 000 000 000 000 000 -99 000 000 000 000 000 000 000 000 001 001 000 -99 -99 -99 -99 -99 -99 000 001
000 000 000 000 000 000 000 000 000 000 000 -99 -99 000 000 000 000 000 000 000 001 002 -99 -99 -99 -99 -99 -99 -99 000 001
000 000 000 000 000 000 000 000 000 000 000 -99 -99 000 000 000 000 000 000 000 001 002 -99 -99 -99 -99 -99 -99 -99 -99 001
000 000 000 000 000 000 000 000 000 000 000 -99 -99 000 000 000 000 000 000 000 001 002 001 001 001 -99 -99 -99 -99 -99 001
000 000 000 000 000 000 000 000 000 000 -99 -99 -99 000 000 000 000 000 000 001 001 001 002 001 000 000 -99 -99 -99 -99 001
000 000 000 000 000 000 000 000 000 000 -99 -99 -99 000 000 000 000 000 000 001 001 001 001 000 000 000 -99 000 001 000 000
000 000 000 000 000 000 000 000 000 000 -99 -99 -99 000 000 000 000 000 000 000 000 001 001 000 000 000 000 000 001 000 000
000 000 000 000 000 000 000 000 000 000 000 000 000 000 000 000 000 000 000 000 000 000 000 000 000 000 000 000 001 000 000
000 000 000 000 000 000 -99 000 000 000 000 000 000 000 000 000 000 000 000 000 000 000 000 000 000 000 000 000 000 000 000
000 000 000 000 000 -99 -99 000 000 000 000 000 000 000 000 000 000 000 000 000 000 000 000 000 000 000 000 000 000 000 000
000 -99 000 000 000 -99 -99 000 000 000 -99 000 000 000 000 000 000 000 000 000 000 000 000 000 000 000 000 000 000 000 000
000 -99 000 000 000 000 -99 000 000 -99 -99 -99 000 000 000 000 000 000 -99 000 000 000 000 000 000 000 000 000 000 000 000
000 000 000 000 000 -99 -99 000 -99 -99 -99 000 000 000 000 000 000 000 -99 -99 000 000 000 000 000 000 000 000 000 000 000
000 000 000 000 000 000 -99 -99 -99 -99 000 000 000 000 000 000 000 000 000 000 000 000 000 000 000 000 000 000 -99 -99 000
000 000 000 000 000 000 000 000 -99 -99 000 000 000 000 000 000 000 000 000 000 000 -99 000 -99 -99 000 000 -99 -99 000 000
000 000 -99 -99 -99 000 000 000 -99 000 000 000 000 -99 000 000 000 000 000 000 000 -99 -99 000 000 000 000 -99 -99 -99 000
000 -99 -99 -99 -99 000 000 000 -99 000 000 000 000 000 000 000 000 000 000 000 -99 -99 -99 000 -99 000 000 000 -99 -99 000
-99 -99 -99 -99 -99 -99 -99 -99 -99 000 000 000 000 000 000 000 -99 000 000 000 -99 -99 -99 -99 -99 000 000 000 -99 -99 -99
000 -99 -99 -99 -99 -99 -99 -99 -99 000 000 000 000 000 000 000 -99 -99 000 -99 -99 -99 -99 -99 -99 000 000 000 -99 -99 000
000 -99 -99 -99 -99 -99 -99 -99 -99 -99 -99 000 -99 000 000 000 -99 -99 000 000 -99 -99 -99 -99 -99 000 000 -99 -99 -99 -99
-99 -99 -99 -99 -99 -99 -99 -99 -99 -99 -99 -99 000 000 000 -99 -99 000 000 -99 -99 -99 -99 000 000 000 -99 -99 000 -99 -99
-99 -99 -99 -99 -99 -99 -99 -99 -99 -99 -99 -99 000 000 -99 -99 -99 000 -99 -99 -99 -99 000 000 000 000 000 000 000 -99 -99
-99 -99 -99 -99 -99 -99 -99 -99 -99 -99 -99 -99 -99 000 -99 -99 000 000 -99 -99 -99 000 -99 000 000 000 000 000 000 -99 -99
-99 -99 -99 -99 -99 -99 -99 -99 -99 -99 -99 -99 -99 -99 -99 -99 000 -99 -99 -99 000 000 000 -99 000 000 000 000 000 -99 -99
-99 -99 -99 -99 -99 -99 -99 -99 -99 -99 -99 -99 -99 000 -99 000 -99 -99 -99 000 000 -99 000 -99 -99 000 -99 -99 -99 -99 -99
-99 -99 -99 -99 -99 -99 -99 -99 -99 -99 -99 -99 -99 000 -99 -99 -99 -99 -99 000 000 -99 -99 -99 -99 -99 -99 -99 -99 -99 -99
-99 -99 -99 -99 -99 -99 -99 -99 -99 000 -99 -99 -99 -99 -99 -99 -99 -99 -99 -99 -99 -99 -99 -99 -99 -99 -99 -99 -99 -99 -99
-99 -99 -99 -99 -99 -99 -99 -99 -99 000 -99 -99 -99 -99 -99 000 -99 -99 -99 -99 -99 -99 -99 -99 -99 -99 -99 -99 -99 -99 -99
